data/solutions/planning/degenerate/moderate/highest_rank_objective/degenerate_moderate_instance13_cplex.sol
Elapsed time: 13.11
Nodes explored: 175293
Nodes left: -
Relative gap: -
Upper bound: 6336569.0
Lower bound: -
C[0]=422460.0
C[1]=422424.0
C[2]=422398.0
C[3]=422397.0
y[0]=0
y[1]=2
y[2]=3
y[3]=2
y[4]=1
y[5]=1
y[6]=1
y[7]=3
y[8]=1
y[9]=3
y[10]=1
y[11]=2
y[12]=3
y[13]=0
y[14]=2
y[15]=3
y[16]=3
y[17]=2
y[18]=1
y[19]=0
y[20]=0
y[21]=0
y[22]=2
y[23]=0
y[24]=2
