data/solutions/planning/degenerate/moderate/highest_rank_objective/degenerate_moderate_instance13_cplex.log
Found incumbent of value 1689679.000000 after 0.00 sec. (0.01 ticks)
Tried aggregator 2 times.
Aggregator did 4 substitutions.
Reduced MIP has 29 rows, 101 columns, and 204 nonzeros.
Reduced MIP has 100 binaries, 0 generals, 0 SOSs, and 0 indicators.
Presolve time = 0.00 sec. (0.24 ticks)
Probing time = 0.00 sec. (0.07 ticks)
Cover probing fixed 0 vars, tightened 3 bounds.
Tried aggregator 1 time.
Reduced MIP has 29 rows, 101 columns, and 204 nonzeros.
Reduced MIP has 100 binaries, 1 generals, 0 SOSs, and 0 indicators.
Presolve time = 0.00 sec. (0.14 ticks)
Probing time = 0.00 sec. (0.05 ticks)
Clique table members: 25.
MIP emphasis: balance optimality and feasibility.
MIP search method: dynamic search.
Parallel mode: none, using 1 thread.
Root relaxation solution time = 0.00 sec. (0.14 ticks)

        Nodes                                         Cuts/
   Node  Left     Objective  IInf  Best Integer    Best Bound    ItCnt     Gap

*     0+    0                      1689679.0000   125628.0000            92.56%
      0     0   422419.7500     7  1689679.0000   422419.7500       26   75.00%
*     0+    0                       458942.0000   422419.7500             7.96%
      0     0   422420.0000     8   458942.0000      Fract: 3       33    7.96%
*     0+    0                       457470.0000   422420.0000             7.66%
      0     0   422420.0000    12   457470.0000       Cuts: 9       44    7.66%
*     0+    0                       432129.0000   422420.0000             2.25%
*     0+    0                       431812.0000   422420.0000             2.18%
      0     2   422420.0000     4   431812.0000   422420.0000       45    2.18%
Elapsed time = 0.01 sec. (3.76 ticks, tree = 0.01 MB, solutions = 5)
*    10+   10                       427686.0000   422420.0000             1.23%
*    30+   28                       426411.0000   422420.0000             0.94%
*    33    29      integral     0   423190.0000   422420.0000      121    0.18%
*   938   618      integral     0   423148.0000   422420.0000     1925    0.17%
*  1036   657      integral     0   423088.0000   422420.0000     2136    0.16%
*  1136+  689                       422970.0000   422420.0000             0.13%
*  1136+  635                       422669.0000   422420.0000             0.06%
*  1949+  291                       422653.0000   422420.0000             0.06%
   2649   525   422420.0000     6   422653.0000   422420.0000     5430    0.06%
   2650   526   422420.0000     6   422653.0000   422420.0000     5431    0.06%
   2651   527   422420.0000     6   422653.0000   422420.0000     5432    0.06%
   2652   528   422420.0000     6   422653.0000   422420.0000     5434    0.06%
   2653   529   422420.0000     6   422653.0000   422420.0000     5436    0.06%
   2654   530   422420.0000     6   422653.0000   422420.0000     5440    0.06%
   2655   531   422420.0000     6   422653.0000   422420.0000     5442    0.06%
   2656   531   422420.0000     6   422653.0000   422420.0000     5443    0.06%
   2657   532   422420.0000     6   422653.0000   422420.0000     5445    0.06%
*  2774   521      integral     0   422620.0000   422420.0000     5646    0.05%
*  3849+  655                       422570.0000   422420.0000             0.04%
  11729  1492    infeasible         422570.0000   422420.0000    21430    0.04%
Elapsed time = 1.60 sec. (960.74 ticks, tree = 0.38 MB, solutions = 15)
  45713  3051   422420.0000     6   422570.0000   422420.0000    84832    0.04%
  45714  3050        cutoff         422570.0000   422420.0000    84836    0.04%
  45715  3051   422420.0000     6   422570.0000   422420.0000    84840    0.04%
  45716  3050        cutoff         422570.0000   422420.0000    84843    0.04%
  45717  3051   422420.0000     6   422570.0000   422420.0000    84847    0.04%
  45718  3052   422420.0000     6   422570.0000   422420.0000    84849    0.04%
  45719  3052   422420.0000     6   422570.0000   422420.0000    84851    0.04%
  45720  3051        cutoff         422570.0000   422420.0000    84852    0.04%
  45721  3052   422420.0000     6   422570.0000   422420.0000    84853    0.04%
  45722  3052   422420.0000     6   422570.0000   422420.0000    84854    0.04%
Elapsed time = 3.17 sec. (1914.75 ticks, tree = 0.80 MB, solutions = 15)
  77625  4560        cutoff         422570.0000   422420.0000   150204    0.04%
  77626  4561   422420.0000     6   422570.0000   422420.0000   150205    0.04%
  77627  4562   422420.0000     6   422570.0000   422420.0000   150206    0.04%
  77628  4563   422420.0000     5   422570.0000   422420.0000   150208    0.04%
  77629  4564   422420.0000     6   422570.0000   422420.0000   150211    0.04%
  77630  4565   422420.0000     5   422570.0000   422420.0000   150213    0.04%
  77631  4566   422420.0000     6   422570.0000   422420.0000   150219    0.04%
  77632  4565        cutoff         422570.0000   422420.0000   150221    0.04%
  77633  4564        cutoff         422570.0000   422420.0000   150223    0.04%
  77634  4565   422420.0000     6   422570.0000   422420.0000   150225    0.04%
Elapsed time = 4.74 sec. (2868.78 ticks, tree = 1.24 MB, solutions = 15)
*103899  1640      integral     0   422464.0000   422420.0000   203496    0.01%
 108833  1693   422420.0000     6   422464.0000   422420.0000   213126    0.01%
 108834  1692        cutoff         422464.0000   422420.0000   213128    0.01%
 108835  1691        cutoff         422464.0000   422420.0000   213131    0.01%
 108836  1690    infeasible         422464.0000   422420.0000   213131    0.01%
 108837  1689    infeasible         422464.0000   422420.0000   213131    0.01%
 108838  1690   422420.0000     6   422464.0000   422420.0000   213133    0.01%
 108839  1691   422420.0000     6   422464.0000   422420.0000   213135    0.01%
 108840  1690        cutoff         422464.0000   422420.0000   213138    0.01%
 108841  1691   422420.0000     6   422464.0000   422420.0000   213140    0.01%
 108842  1692   422420.0000     6   422464.0000   422420.0000   213142    0.01%
Elapsed time = 6.31 sec. (3822.69 ticks, tree = 0.59 MB, solutions = 16)
 140383  1893        cutoff         422464.0000   422420.0000   277774    0.01%
 140384  1894   422420.0000     6   422464.0000   422420.0000   277776    0.01%
 140385  1895   422420.0000     5   422464.0000   422420.0000   277780    0.01%
 140386  1894    infeasible         422464.0000   422420.0000   277780    0.01%
 140387  1894   422420.0000     6   422464.0000   422420.0000   277783    0.01%
 140388  1895   422420.0000     6   422464.0000   422420.0000   277785    0.01%
 140389  1896   422420.0000     6   422464.0000   422420.0000   277787    0.01%
 140390  1895        cutoff         422464.0000   422420.0000   277792    0.01%
 140391  1894        cutoff         422464.0000   422420.0000   277794    0.01%
 140392  1893    infeasible         422464.0000   422420.0000   277794    0.01%
Elapsed time = 7.88 sec. (4776.60 ticks, tree = 0.64 MB, solutions = 16)
 173583  2141   422420.0000     6   422464.0000   422420.0000   344705    0.01%
 173584  2140        cutoff         422464.0000   422420.0000   344708    0.01%
 173585  2140   422420.0000     6   422464.0000   422420.0000   344710    0.01%
 173586  2141   422420.0000     6   422464.0000   422420.0000   344712    0.01%
 173587  2140    infeasible         422464.0000   422420.0000   344712    0.01%
 173588  2139        cutoff         422464.0000   422420.0000   344714    0.01%
 173589  2138        cutoff         422464.0000   422420.0000   344716    0.01%
 173590  2137        cutoff         422464.0000   422420.0000   344718    0.01%
 173591  2136    infeasible         422464.0000   422420.0000   344718    0.01%
 173592  2137   422420.0000     6   422464.0000   422420.0000   344720    0.01%
Elapsed time = 9.41 sec. (5730.76 ticks, tree = 0.69 MB, solutions = 16)
*174882  1929      integral     0   422462.0000   422420.0000   347209    0.01%

Cover cuts applied:  1
Mixed integer rounding cuts applied:  1

Root node processing (before b&c):
  Real time             =    0.01 sec. (3.76 ticks)
Sequential b&c:
  Real time             =    9.47 sec. (5769.30 ticks)
                          ------------
Total (root+branch&cut) =    9.48 sec. (5773.06 ticks)

Populate: phase II 
Tried aggregator 2 times.
Aggregator did 4 substitutions.
Reduced MIP has 29 rows, 101 columns, and 204 nonzeros.
Reduced MIP has 100 binaries, 0 generals, 0 SOSs, and 0 indicators.
Presolve time = 0.00 sec. (0.24 ticks)
Probing time = 0.00 sec. (0.07 ticks)
Cover probing fixed 0 vars, tightened 3 bounds.
Clique table members: 25.
MIP emphasis: balance optimality and feasibility.
MIP search method: dynamic search.
Parallel mode: none, using 1 thread.
Root relaxation solution time = 0.00 sec. (0.14 ticks)

        Nodes                                         Cuts/
   Node  Left     Objective  IInf  Best Integer    Best Bound    ItCnt     Gap

*     0+    0                       422462.0000        0.0000           100.00%
      0     0   422419.7500     7   422462.0000   422419.7500       26    0.01%
      0     2   422420.0000     6   422462.0000   422420.0000       26    0.01%
Elapsed time = 0.01 sec. (3.48 ticks, tree = 0.01 MB, solutions = 28)
      1     3   422420.0000     6   422462.0000   422420.0000       31    0.01%
*     2+    2                       422460.0000   422420.0000             0.01%
      2     4   422420.0000     5   422460.0000   422420.0000       34    0.01%
      3     5   422420.0000     5   422460.0000   422420.0000       40    0.01%
      4     6   422420.0000     5   422460.0000   422420.0000       41    0.01%
      5     7   422420.0000     5   422460.0000   422420.0000       43    0.01%
      6     8   422420.0000     5   422460.0000   422420.0000       48    0.01%
      7     9   422420.0000     5   422460.0000   422420.0000       54    0.01%
      8    10   422420.0000     5   422460.0000   422420.0000       55    0.01%
      9    11   422420.0000     5   422460.0000   422420.0000       58    0.01%
     10    12   422420.0000     6   422460.0000   422420.0000       62    0.01%
Elapsed time = 3.39 sec. (1382.75 ticks, tree = 0.01 MB, solutions = 1541)

Root node processing (before b&c):
  Real time             =    0.02 sec. (4.93 ticks)
Sequential b&c:
  Real time             =    3.61 sec. (1464.07 ticks)
                          ------------
Total (root+branch&cut) =    3.63 sec. (1469.00 ticks)
